c Generated by SAT Solver
p cnf 2002 214
101 102 0
201 202 0
301 302 0
401 402 0
501 502 0
601 602 0
701 702 0
801 802 0
901 902 0
1001 1002 0
1101 1102 0
1201 1202 0
1301 1302 0
1401 1402 0
1501 1502 0
1601 1602 0
1701 1702 0
1801 1802 0
1901 1902 0
2001 2002 0
-101 -102 0
-201 -202 0
-301 -302 0
-401 -402 0
-501 -502 0
-601 -602 0
-701 -702 0
-801 -802 0
-901 -902 0
-1001 -1002 0
-1101 -1102 0
-1201 -1202 0
-1301 -1302 0
-1401 -1402 0
-1501 -1502 0
-1601 -1602 0
-1701 -1702 0
-1801 -1802 0
-1901 -1902 0
-2001 -2002 0
-101 -201 0
-102 -202 0
-101 -601 0
-102 -602 0
-101 -701 0
-102 -702 0
-101 -901 0
-102 -902 0
-101 -1101 0
-102 -1102 0
-101 -1401 0
-102 -1402 0
-101 -1601 0
-102 -1602 0
-101 -1701 0
-102 -1702 0
-101 -1801 0
-102 -1802 0
-101 -1901 0
-102 -1902 0
-101 -2001 0
-102 -2002 0
-201 -601 0
-202 -602 0
-201 -801 0
-202 -802 0
-201 -1301 0
-202 -1302 0
-201 -1801 0
-202 -1802 0
-201 -1901 0
-202 -1902 0
-301 -501 0
-302 -502 0
-301 -601 0
-302 -602 0
-301 -701 0
-302 -702 0
-301 -801 0
-302 -802 0
-301 -901 0
-302 -902 0
-301 -1001 0
-302 -1002 0
-301 -1101 0
-302 -1102 0
-301 -1301 0
-302 -1302 0
-301 -1401 0
-302 -1402 0
-301 -1501 0
-302 -1502 0
-301 -1801 0
-302 -1802 0
-301 -1901 0
-302 -1902 0
-401 -901 0
-402 -902 0
-401 -1201 0
-402 -1202 0
-401 -1301 0
-402 -1302 0
-401 -1401 0
-402 -1402 0
-401 -1501 0
-402 -1502 0
-401 -1601 0
-402 -1602 0
-401 -1801 0
-402 -1802 0
-401 -2001 0
-402 -2002 0
-501 -801 0
-502 -802 0
-501 -1001 0
-502 -1002 0
-501 -1801 0
-502 -1802 0
-501 -2001 0
-502 -2002 0
-601 -801 0
-602 -802 0
-601 -901 0
-602 -902 0
-601 -1001 0
-602 -1002 0
-601 -1301 0
-602 -1302 0
-601 -1401 0
-602 -1402 0
-601 -1501 0
-602 -1502 0
-601 -1701 0
-602 -1702 0
-601 -1801 0
-602 -1802 0
-701 -901 0
-702 -902 0
-701 -1001 0
-702 -1002 0
-701 -1101 0
-702 -1102 0
-701 -1301 0
-702 -1302 0
-701 -1401 0
-702 -1402 0
-701 -1601 0
-702 -1602 0
-801 -901 0
-802 -902 0
-801 -1101 0
-802 -1102 0
-801 -1601 0
-802 -1602 0
-801 -1801 0
-802 -1802 0
-901 -1001 0
-902 -1002 0
-901 -1101 0
-902 -1102 0
-901 -1401 0
-902 -1402 0
-901 -1501 0
-902 -1502 0
-901 -2001 0
-902 -2002 0
-1001 -1101 0
-1002 -1102 0
-1001 -1301 0
-1002 -1302 0
-1001 -1501 0
-1002 -1502 0
-1001 -1701 0
-1002 -1702 0
-1001 -1901 0
-1002 -1902 0
-1001 -2001 0
-1002 -2002 0
-1101 -1301 0
-1102 -1302 0
-1101 -1401 0
-1102 -1402 0
-1101 -1801 0
-1102 -1802 0
-1101 -1901 0
-1102 -1902 0
-1201 -1501 0
-1202 -1502 0
-1201 -1701 0
-1202 -1702 0
-1201 -1901 0
-1202 -1902 0
-1201 -2001 0
-1202 -2002 0
-1301 -1601 0
-1302 -1602 0
-1401 -1801 0
-1402 -1802 0
-1401 -1901 0
-1402 -1902 0
-1501 -1601 0
-1502 -1602 0
-1501 -1901 0
-1502 -1902 0
-1601 -1701 0
-1602 -1702 0
-1601 -1801 0
-1602 -1802 0
-1601 -2001 0
-1602 -2002 0
-1801 -1901 0
-1802 -1902 0
-1801 -2001 0
-1802 -2002 0
